
Gurobi 7.0.2 (linux64, Java) logging started Mon 20 May 2019 10:32:53 PM -03

Optimize a model with 2500 rows, 1640 columns and 5820 nonzeros
Variable types: 0 continuous, 1640 integer (1640 binary)
Coefficient statistics:
  Matrix range     [1e+00, 2e+00]
  Objective range  [1e+00, 1e+01]
  Bounds range     [1e+00, 1e+00]
  RHS range        [1e+00, 2e+00]
Found heuristic solution: objective -0
Presolve removed 120 rows and 820 columns
Presolve time: 0.16s
Presolved: 2380 rows, 820 columns, 5580 nonzeros
Variable types: 0 continuous, 820 integer (820 binary)

Root relaxation: objective 9.915000e+02, 833 iterations, 0.24 seconds

    Nodes    |    Current Node    |     Objective Bounds      |     Work
 Expl Unexpl |  Obj  Depth IntInf | Incumbent    BestBd   Gap | It/Node Time

     0     0  991.50000    0  404   -0.00000  991.50000      -     -    0s
H    0     0                     124.0000000  991.50000   700%     -    0s
H    0     0                     200.0000000  991.50000   396%     -    0s
H    0     0                     208.0000000  991.50000   377%     -    1s
     0     0  939.00000    0  383  208.00000  939.00000   351%     -    1s
H    0     0                     226.0000000  939.00000   315%     -    1s
     0     0  897.50000    0  400  226.00000  897.50000   297%     -    1s
     0     0  852.75000    0  421  226.00000  852.75000   277%     -    2s
     0     0  811.75000    0  439  226.00000  811.75000   259%     -    2s
     0     0  784.00000    0  448  226.00000  784.00000   247%     -    2s
     0     0  783.25000    0  448  226.00000  783.25000   247%     -    3s
     0     0  767.50000    0  437  226.00000  767.50000   240%     -    3s
     0     0  731.16667    0  457  226.00000  731.16667   224%     -    4s
H    0     0                     296.0000000  731.16667   147%     -    4s
     0     0  730.62500    0  455  296.00000  730.62500   147%     -    4s
     0     0  687.62500    0  473  296.00000  687.62500   132%     -    4s
     0     0  687.43750    0  471  296.00000  687.43750   132%     -    4s
H    0     0                     313.0000000  687.43750   120%     -    5s
     0     0  659.22500    0  491  313.00000  659.22500   111%     -    5s
     0     0  657.87500    0  489  313.00000  657.87500   110%     -    5s
     0     0  621.00000    0  503  313.00000  621.00000  98.4%     -    6s
     0     0  618.38333    0  503  313.00000  618.38333  97.6%     -    7s
     0     0  585.08333    0  483  313.00000  585.08333  86.9%     -    8s
     0     0  584.91667    0  483  313.00000  584.91667  86.9%     -    8s
     0     0  563.50000    0  412  313.00000  563.50000  80.0%     -    9s
     0     0  545.25000    0  564  313.00000  545.25000  74.2%     -   10s
     0     0  545.25000    0  562  313.00000  545.25000  74.2%     -   10s
     0     2  545.25000    0  562  313.00000  545.25000  74.2%     -   23s
     1     4  519.58333    1  555  313.00000  545.10017  74.2%  1113   26s
     7    12  460.12500    3  538  313.00000  486.11280  55.3%  1131   31s
    15    20  427.50000    4  508  313.00000  460.28125  47.1%  1073   37s
    19    23  414.00000    4  485  313.00000  460.28125  47.1%  1171   40s
    27    26  358.62500    6  446  313.00000  460.28125  47.1%  1242   51s
H   29    30                     366.0000000  460.28125  25.8%  1188   51s
    31    17     cutoff    7       366.00000  460.28125  25.8%  1307   55s
    39    22  420.41667    3  560  366.00000  460.11720  25.7%  1196   61s
    44    23  392.50000    4  584  366.00000  459.94753  25.7%  1248   66s
    58    21     cutoff    5       366.00000  459.94753  25.7%  1133   75s
    67    18     cutoff    5       366.00000  433.26603  18.4%  1151   81s
    75    20     cutoff    5       366.00000  432.62272  18.2%  1079   87s
    87    14  371.41419    7  549  366.00000  432.62272  18.2%  1085   93s
    95    14     cutoff    8       366.00000  432.62272  18.2%  1052  100s
   104    13     cutoff    5       366.00000  414.21484  13.2%  1056  105s
   111     8  376.04437    6  615  366.00000  414.21484  13.2%  1049  110s
   129     2     cutoff    5       366.00000  387.12093  5.77%   987  117s

Cutting planes:
  Gomory: 4
  Zero half: 2014

Explored 138 nodes (134671 simplex iterations) in 117.46 seconds
Thread count was 4 (of 4 available processors)

Solution count 8: 366 313 296 ... -0
Pool objective bound 366

Optimal solution found (tolerance 1.00e-04)
Best objective 3.660000000000e+02, best bound 3.660000000000e+02, gap 0.0000%
